<?xml version="1.0" encoding="UTF-8"?><osil xmlns="os.optimizationservices.org" xmlns:xsi="http://www.w3.org/2001/XMLSchema-instance" xsi:schemaLocation="os.optimizationservices.org http://www.optimizationservices.org/schemas/2.0/OSiL.xsd"><instanceHeader><name>ex1223a</name></instanceHeader><instanceData><variables numberOfVariables="7"><var name="x1" ub="10"/><var name="x2" ub="10"/><var name="x3" ub="10"/><var name="b4" type="B" ub="1"/><var name="b5" type="B" ub="1"/><var name="b6" type="B" ub="1"/><var name="b7" type="B" ub="1"/></variables><objectives><obj maxOrMin="min" constant="20" name="defObj_objvar" numberOfObjCoef="7"><coef idx="0">-2</coef><coef idx="1">-4</coef><coef idx="2">-6</coef><coef idx="3">-1</coef><coef idx="4">-3</coef><coef idx="5">-1</coef><coef idx="6">-.693147180559945</coef></obj></objectives><constraints numberOfConstraints="9"><con name="e1" ub="5"/><con name="e2" ub="5.5"/><con name="e3" ub="1.2"/><con name="e4" ub="1.8"/><con name="e5" ub="2.5"/><con name="e6" ub="1.2"/><con name="e7" ub="1.64"/><con name="e8" ub="4.25"/><con name="e9" ub="4.64"/></constraints><linearConstraintCoefficients numberOfValues="18"><start><el>0</el><el>6</el><el mult="5" incr="2">7</el><el mult="3" incr="1">16</el></start><colIdx><el mult="6" incr="1">0</el><el>5</el><el>0</el><el>3</el><el>1</el><el>4</el><el>2</el><el>5</el><el>0</el><el>6</el><el>4</el><el>5</el><el>4</el></colIdx><value><el mult="18">1</el></value></linearConstraintCoefficients><quadraticCoefficients numberOfQuadraticTerms="9"><qTerm idx="-1" idxOne="0" idxTwo="0" coef="1"/><qTerm idx="-1" idxOne="1" idxTwo="1" coef="1"/><qTerm idx="-1" idxOne="2" idxTwo="2" coef="1"/><qTerm idx="1" idxOne="0" idxTwo="0" coef="1"/><qTerm idx="1" idxOne="1" idxTwo="1" coef="1"/><qTerm idx="1" idxOne="2" idxTwo="2" coef="1"/><qTerm idx="6" idxOne="1" idxTwo="1" coef="1"/><qTerm idx="7" idxOne="2" idxTwo="2" coef="1"/><qTerm idx="8" idxOne="2" idxTwo="2" coef="1"/></quadraticCoefficients></instanceData></osil>